Soluciones/instance10B.out
222481 5.25554
10
2 8 3 4 7 6 9 5 1 0 